Route #1: 67 46 34 52 13 57 15 27 4
Route #2: 48 47 36 69 71 60 70 20 37 5 29 45
Route #3: 30 2 74 21 61 28 62 73
Route #4: 33 1 22 64 42 43 41 56 23
Route #5: 17 16 49 24 18 50 55 25 9 39 72
Route #6: 58 31 10 38 65 66 11
Route #7: 8 54 19 59 14 53 35 7 26
Route #8: 12 40 32 44 3 63 51 6 68 75
Cost 783